MATRIX
2147483647 1 1 60 83 82 85 72 53 66 
47 2147483647 1 12 15 70 97 8 89 34 
75 66 2147483647 1 86 88 55 1 42 12 
1 81 61 2147483647 1 28 78 33 26 61 
50 40 77 82 2147483647 1 45 88 7 40 
27 1 42 80 36 2147483647 1 91 78 1 
67 99 24 78 65 66 2147483647 1 35 87 
67 10 79 4 76 1 17 2147483647 1 1 
62 17 68 93 58 82 53 48 2147483647 1 
1 1 7 31 74 14 43 96 18 2147483647 
